100 8
407 504
789 202
177 748
796 772
551 693
473 251
946 545
873 654
624 844
710 148
745 416
576 666
575 225
191 777
470 733
713 171
363 543
385 30
588 245
684 299
250 680
515 367
577 300
849 267
270 661
378 509
642 819
251 780
853 277
272 768
393 360
650 195
886 594
421 600
582 897
754 881
320 99
404 542
760 446
255 153
602 900
247 455
450 648
615 190
422 446
402 235
144 506
934 311
847 840
431 426
68 489
21 531
803 267
554 325
583 292
414 456
426 305
559 783
403 616
534 753
359 611
190 794
607 892
289 745
275 551
106 825
444 358
348 711
822 668
392 637
731 373
478 826
335 58
477 213
819 326
473 367
557 141
36 515
821 444
379 653
569 121
578 340
569 957
394 775
727 412
529 779
899 483
323 99
826 725
736 853
663 277
570 924
255 760
421 346
425 643
442 423
579 727
405 582
557 429
756 761
